N = 7;
Capacity = 4;
ItemsPerCustomer = [7, 7, 5, 8, 7, 7, 3];
maxItemsPerCustomer = 8;
binCapacity = 50;
SizesOfItems = [|
  38, 37, 25, 23, 21, 21, 15, 0
| 50, 50, 50, 50, 50, 25, 15, 0
| 40, 39, 31, 15, 14, 0, 0, 0
| 38, 34, 30, 28, 25, 25, 15, 15
| 38, 33, 33, 27, 12, 12, 11, 0
| 37, 36, 35, 27, 27, 26, 19, 0
| 29, 16, 15, 0, 0, 0, 0, 0
|];
Distance = [|
  0, 25, 45, 30, 17, 49, 20, 55
| 25, 0, 45, 6, 39, 44, 38, 41
| 45, 45, 0, 51, 39, 88, 64, 86
| 30, 6, 51, 0, 44, 40, 40, 35
| 17, 39, 39, 44, 0, 66, 30, 72
| 49, 44, 88, 40, 66, 0, 41, 18
| 20, 38, 64, 40, 30, 41, 0, 53
| 55, 41, 86, 35, 72, 18, 53, 0
|];
